c FILE /home/rafael/Documents/HappySet/MIHS/inputs/happygen/output/graph_d_regular_k3_p0.1_v100_20241127_084007.txt
c SOURCE This is a d-regular graph formed for the happy graph colouring problem.
c DESCRIPTION It was generated using the problem generator of Rhyd Lewis
c
c GRAPH STATS
c Seed                             = 2138264181
c Number of Nodes                  = 100
c Number of colours k              = 3
c Number of pre-assignments        = 10
c Degree of all vertices           = 6
c Density                          = 0.0606061
c 
c The degrees of nodes 1 to 100, respectively, are as follows 
c [6, 6, 6, 6, 6, 6, 6, 6, 6, 6, 6, 6, 6, 6, 6, 6, 6, 6, 6, 6, 6, 6, 6, 6, 6, 6, 
c  6, 6, 6, 6, 6, 6, 6, 6, 6, 6, 6, 6, 6, 6, 6, 6, 6, 6, 6, 6, 6, 6, 6, 6, 6, 
c  6, 6, 6, 6, 6, 6, 6, 6, 6, 6, 6, 6, 6, 6, 6, 6, 6, 6, 6, 6, 6, 6, 6, 6, 6, 
c  6, 6, 6, 6, 6, 6, 6, 6, 6, 6, 6, 6, 6, 6, 6, 6, 6, 6, 6, 6, 6, 6, 6, 6] 
c  
p edge 100 300 3
e 1 16
e 1 17
e 1 24
e 1 58
e 1 59
e 1 82
e 2 31
e 2 37
e 2 39
e 2 54
e 2 60
e 2 98
e 3 7
e 3 12
e 3 31
e 3 66
e 3 74
e 3 76
e 4 35
e 4 36
e 4 40
e 4 51
e 4 65
e 4 97
e 5 12
e 5 19
e 5 40
e 5 43
e 5 68
e 5 87
e 6 37
e 6 41
e 6 64
e 6 81
e 6 83
e 6 96
e 7 9
e 7 14
e 7 59
e 7 62
e 7 94
e 8 11
e 8 31
e 8 47
e 8 48
e 8 84
e 8 91
e 9 19
e 9 35
e 9 39
e 9 44
e 9 96
e 10 43
e 10 62
e 10 67
e 10 71
e 10 74
e 10 80
e 11 18
e 11 20
e 11 63
e 11 89
e 11 90
e 12 14
e 12 21
e 12 34
e 12 80
e 13 24
e 13 26
e 13 36
e 13 45
e 13 46
e 13 59
e 14 38
e 14 41
e 14 64
e 14 69
e 15 24
e 15 33
e 15 57
e 15 65
e 15 75
e 15 82
e 16 20
e 16 54
e 16 59
e 16 71
e 16 79
e 17 39
e 17 79
e 17 87
e 17 88
e 17 93
e 18 26
e 18 33
e 18 51
e 18 80
e 18 91
e 19 23
e 19 27
e 19 45
e 19 93
e 20 23
e 20 47
e 20 65
e 20 72
e 21 26
e 21 35
e 21 62
e 21 76
e 21 83
e 22 46
e 22 61
e 22 77
e 22 81
e 22 82
e 22 85
e 23 60
e 23 63
e 23 67
e 23 69
e 24 29
e 24 96
e 24 97
e 25 56
e 25 62
e 25 88
e 25 96
e 25 98
e 25 100
e 26 36
e 26 73
e 26 87
e 27 42
e 27 59
e 27 75
e 27 80
e 27 81
e 28 30
e 28 34
e 28 38
e 28 61
e 28 65
e 28 77
e 29 35
e 29 48
e 29 64
e 29 74
e 29 78
e 30 34
e 30 39
e 30 47
e 30 72
e 30 73
e 31 66
e 31 75
e 31 84
e 32 44
e 32 46
e 32 57
e 32 67
e 32 73
e 32 94
e 33 38
e 33 63
e 33 72
e 33 91
e 34 41
e 34 45
e 34 85
e 35 60
e 35 80
e 36 78
e 36 80
e 36 85
e 37 49
e 37 68
e 37 82
e 37 86
e 38 61
e 38 64
e 38 71
e 39 48
e 39 77
e 40 55
e 40 68
e 40 84
e 40 90
e 41 42
e 41 65
e 41 71
e 42 44
e 42 75
e 42 94
e 42 97
e 43 73
e 43 78
e 43 86
e 43 92
e 44 47
e 44 53
e 44 86
e 45 46
e 45 60
e 45 90
e 46 52
e 46 88
e 47 68
e 47 100
e 48 49
e 48 75
e 48 97
e 49 50
e 49 55
e 49 69
e 49 88
e 50 54
e 50 78
e 50 83
e 50 89
e 50 93
e 51 52
e 51 68
e 51 76
e 51 92
e 52 54
e 52 60
e 52 76
e 52 95
e 53 55
e 53 61
e 53 63
e 53 76
e 53 77
e 54 71
e 54 75
e 55 68
e 55 77
e 55 84
e 56 65
e 56 67
e 56 79
e 56 89
e 56 96
e 57 58
e 57 86
e 57 91
e 57 95
e 58 70
e 58 72
e 58 99
e 58 100
e 59 79
e 60 84
e 61 77
e 61 91
e 62 73
e 62 100
e 63 64
e 63 98
e 64 93
e 66 87
e 66 94
e 66 99
e 66 100
e 67 70
e 67 84
e 69 74
e 69 78
e 69 92
e 70 76
e 70 81
e 70 85
e 70 90
e 71 87
e 72 74
e 72 100
e 73 99
e 74 89
e 78 86
e 79 83
e 79 97
e 81 96
e 81 99
e 82 86
e 82 95
e 83 88
e 83 95
e 85 93
e 85 94
e 87 98
e 88 91
e 89 90
e 89 92
e 90 99
e 92 93
e 92 94
e 95 97
e 95 98
e 98 99
n 1 1
n 2 2
n 3 2
n 12 2
n 21 2
n 43 1
n 55 3
n 56 2
n 75 3
n 87 1
